c description: Random 3-CNF over 18 variables and 77 clauses
c generator: CNFgen (0.9.2)
c copyright: (C) 2012-2022 Massimo Lauria <massimo.lauria@uniroma1.it>
c url: https://massimolauria.net/cnfgen
c command line: cnfgen --output ../CNF/18_bit_77_70.cnf randkcnf 3 18 77
c
p cnf 18 77
1 -4 -18 0
1 -8 9 0
-13 -14 18 0
5 17 -18 0
4 -7 -13 0
-2 -4 10 0
2 11 18 0
-9 -11 -14 0
-2 17 18 0
3 -8 16 0
-3 -4 11 0
-2 9 17 0
-4 11 -17 0
6 7 10 0
3 -4 -12 0
-3 -12 17 0
2 -4 6 0
-10 -13 14 0
4 17 -18 0
-2 4 6 0
2 8 17 0
7 12 14 0
-6 -9 16 0
2 9 13 0
2 -10 -17 0
-1 4 15 0
-3 6 15 0
14 16 -18 0
-3 -4 9 0
1 11 -17 0
-5 7 15 0
-8 10 16 0
-1 -4 -7 0
-4 5 16 0
-5 10 12 0
-3 -8 -18 0
-7 10 15 0
6 7 -9 0
-5 -7 18 0
-5 9 13 0
-7 9 -14 0
-2 -3 14 0
-5 11 17 0
-12 -13 -14 0
14 15 18 0
-3 -9 11 0
7 14 -17 0
3 8 -11 0
2 8 -18 0
-2 3 8 0
1 8 -13 0
1 -8 -15 0
-7 8 -12 0
-3 6 -17 0
15 -17 -18 0
6 11 17 0
-4 -16 18 0
-8 -14 17 0
-4 6 7 0
3 9 11 0
-1 -15 -18 0
3 7 8 0
-1 -6 -9 0
5 13 -14 0
-2 -8 -13 0
-3 -12 18 0
6 10 -14 0
-10 12 16 0
4 -8 -18 0
-8 13 14 0
7 9 11 0
-7 8 15 0
-2 -5 13 0
2 12 15 0
-9 16 -17 0
-2 -11 -17 0
8 9 -11 0
